; Benchmark for LTL-sketching problem
(set-logic QF_UF)
(set-info :status unknown)
(declare-fun z_0_0_0 () Bool)
(declare-fun z_0_1_0 () Bool)
(declare-fun z_0_2_0 () Bool)
(declare-fun z_0_3_0 () Bool)
(declare-fun z_0_4_0 () Bool)
(declare-fun z_0_5_0 () Bool)
(declare-fun z_0_6_0 () Bool)
(declare-fun z_0_7_0 () Bool)
(declare-fun z_0_8_0 () Bool)
(declare-fun z_0_9_0 () Bool)
(declare-fun z_0_10_0 () Bool)
(declare-fun z_0_11_0 () Bool)
(declare-fun z_0_12_0 () Bool)
(declare-fun z_0_13_0 () Bool)
(declare-fun z_0_14_0 () Bool)
(declare-fun z_0_15_0 () Bool)
(declare-fun z_0_16_0 () Bool)
(declare-fun z_0_17_0 () Bool)
(declare-fun z_0_18_0 () Bool)
(declare-fun z_0_19_0 () Bool)
(declare-fun z_2_0_0 () Bool)
(declare-fun z_2_1_0 () Bool)
(declare-fun z_2_2_0 () Bool)
(declare-fun z_2_3_0 () Bool)
(declare-fun z_2_4_0 () Bool)
(declare-fun z_2_5_0 () Bool)
(declare-fun z_2_6_0 () Bool)
(declare-fun z_2_7_0 () Bool)
(declare-fun z_2_8_0 () Bool)
(declare-fun z_2_9_0 () Bool)
(declare-fun z_2_10_8 () Bool)
(declare-fun z_2_10_7 () Bool)
(declare-fun z_2_10_6 () Bool)
(declare-fun z_2_10_5 () Bool)
(declare-fun z_2_10_4 () Bool)
(declare-fun z_2_10_3 () Bool)
(declare-fun z_2_10_2 () Bool)
(declare-fun z_2_10_1 () Bool)
(declare-fun z_2_10_0 () Bool)
(declare-fun z_0_10_1 () Bool)
(declare-fun z_0_10_2 () Bool)
(declare-fun z_0_10_3 () Bool)
(declare-fun z_0_10_4 () Bool)
(declare-fun z_0_10_5 () Bool)
(declare-fun z_0_10_6 () Bool)
(declare-fun z_0_10_7 () Bool)
(declare-fun z_0_10_8 () Bool)
(declare-fun z_2_11_9 () Bool)
(declare-fun z_2_11_8 () Bool)
(declare-fun z_2_11_7 () Bool)
(declare-fun z_2_11_6 () Bool)
(declare-fun z_2_11_5 () Bool)
(declare-fun z_2_11_4 () Bool)
(declare-fun z_2_11_3 () Bool)
(declare-fun z_2_11_2 () Bool)
(declare-fun z_2_11_1 () Bool)
(declare-fun z_2_11_0 () Bool)
(declare-fun z_0_11_1 () Bool)
(declare-fun z_0_11_2 () Bool)
(declare-fun z_0_11_3 () Bool)
(declare-fun z_0_11_4 () Bool)
(declare-fun z_0_11_5 () Bool)
(declare-fun z_0_11_6 () Bool)
(declare-fun z_0_11_7 () Bool)
(declare-fun z_0_11_8 () Bool)
(declare-fun z_0_11_9 () Bool)
(declare-fun z_2_12_10 () Bool)
(declare-fun z_2_12_9 () Bool)
(declare-fun z_2_12_8 () Bool)
(declare-fun z_2_12_7 () Bool)
(declare-fun z_2_12_6 () Bool)
(declare-fun z_2_12_5 () Bool)
(declare-fun z_2_12_4 () Bool)
(declare-fun z_2_12_3 () Bool)
(declare-fun z_2_12_2 () Bool)
(declare-fun z_2_12_1 () Bool)
(declare-fun z_2_12_0 () Bool)
(declare-fun z_0_12_1 () Bool)
(declare-fun z_0_12_2 () Bool)
(declare-fun z_0_12_3 () Bool)
(declare-fun z_0_12_4 () Bool)
(declare-fun z_0_12_5 () Bool)
(declare-fun z_0_12_6 () Bool)
(declare-fun z_0_12_7 () Bool)
(declare-fun z_0_12_8 () Bool)
(declare-fun z_0_12_9 () Bool)
(declare-fun z_0_12_10 () Bool)
(declare-fun z_2_13_8 () Bool)
(declare-fun z_2_13_7 () Bool)
(declare-fun z_2_13_6 () Bool)
(declare-fun z_2_13_5 () Bool)
(declare-fun z_2_13_4 () Bool)
(declare-fun z_2_13_3 () Bool)
(declare-fun z_2_13_2 () Bool)
(declare-fun z_2_13_1 () Bool)
(declare-fun z_2_13_0 () Bool)
(declare-fun z_0_13_1 () Bool)
(declare-fun z_0_13_2 () Bool)
(declare-fun z_0_13_3 () Bool)
(declare-fun z_0_13_4 () Bool)
(declare-fun z_0_13_5 () Bool)
(declare-fun z_0_13_6 () Bool)
(declare-fun z_0_13_7 () Bool)
(declare-fun z_0_13_8 () Bool)
(declare-fun z_2_14_5 () Bool)
(declare-fun z_2_14_4 () Bool)
(declare-fun z_2_14_3 () Bool)
(declare-fun z_2_14_2 () Bool)
(declare-fun z_2_14_1 () Bool)
(declare-fun z_2_14_0 () Bool)
(declare-fun z_0_14_1 () Bool)
(declare-fun z_0_14_2 () Bool)
(declare-fun z_0_14_3 () Bool)
(declare-fun z_0_14_4 () Bool)
(declare-fun z_0_14_5 () Bool)
(declare-fun z_2_15_11 () Bool)
(declare-fun z_2_15_10 () Bool)
(declare-fun z_2_15_9 () Bool)
(declare-fun z_2_15_8 () Bool)
(declare-fun z_2_15_7 () Bool)
(declare-fun z_2_15_6 () Bool)
(declare-fun z_2_15_5 () Bool)
(declare-fun z_2_15_4 () Bool)
(declare-fun z_2_15_3 () Bool)
(declare-fun z_2_15_2 () Bool)
(declare-fun z_2_15_1 () Bool)
(declare-fun z_2_15_0 () Bool)
(declare-fun z_0_15_1 () Bool)
(declare-fun z_0_15_2 () Bool)
(declare-fun z_0_15_3 () Bool)
(declare-fun z_0_15_4 () Bool)
(declare-fun z_0_15_5 () Bool)
(declare-fun z_0_15_6 () Bool)
(declare-fun z_0_15_7 () Bool)
(declare-fun z_0_15_8 () Bool)
(declare-fun z_0_15_9 () Bool)
(declare-fun z_0_15_10 () Bool)
(declare-fun z_0_15_11 () Bool)
(declare-fun z_2_16_6 () Bool)
(declare-fun z_2_16_5 () Bool)
(declare-fun z_2_16_4 () Bool)
(declare-fun z_2_16_3 () Bool)
(declare-fun z_2_16_2 () Bool)
(declare-fun z_2_16_1 () Bool)
(declare-fun z_2_16_0 () Bool)
(declare-fun z_0_16_1 () Bool)
(declare-fun z_0_16_2 () Bool)
(declare-fun z_0_16_3 () Bool)
(declare-fun z_0_16_4 () Bool)
(declare-fun z_0_16_5 () Bool)
(declare-fun z_0_16_6 () Bool)
(declare-fun z_2_17_11 () Bool)
(declare-fun z_2_17_10 () Bool)
(declare-fun z_2_17_9 () Bool)
(declare-fun z_2_17_8 () Bool)
(declare-fun z_2_17_7 () Bool)
(declare-fun z_2_17_6 () Bool)
(declare-fun z_2_17_5 () Bool)
(declare-fun z_2_17_4 () Bool)
(declare-fun z_2_17_3 () Bool)
(declare-fun z_2_17_2 () Bool)
(declare-fun z_2_17_1 () Bool)
(declare-fun z_2_17_0 () Bool)
(declare-fun z_0_17_1 () Bool)
(declare-fun z_0_17_2 () Bool)
(declare-fun z_0_17_3 () Bool)
(declare-fun z_0_17_4 () Bool)
(declare-fun z_0_17_5 () Bool)
(declare-fun z_0_17_6 () Bool)
(declare-fun z_0_17_7 () Bool)
(declare-fun z_0_17_8 () Bool)
(declare-fun z_0_17_9 () Bool)
(declare-fun z_0_17_10 () Bool)
(declare-fun z_0_17_11 () Bool)
(declare-fun z_2_18_7 () Bool)
(declare-fun z_2_18_6 () Bool)
(declare-fun z_2_18_5 () Bool)
(declare-fun z_2_18_4 () Bool)
(declare-fun z_2_18_3 () Bool)
(declare-fun z_2_18_2 () Bool)
(declare-fun z_2_18_1 () Bool)
(declare-fun z_2_18_0 () Bool)
(declare-fun z_0_18_1 () Bool)
(declare-fun z_0_18_2 () Bool)
(declare-fun z_0_18_3 () Bool)
(declare-fun z_0_18_4 () Bool)
(declare-fun z_0_18_5 () Bool)
(declare-fun z_0_18_6 () Bool)
(declare-fun z_0_18_7 () Bool)
(declare-fun z_2_19_8 () Bool)
(declare-fun z_2_19_7 () Bool)
(declare-fun z_2_19_6 () Bool)
(declare-fun z_2_19_5 () Bool)
(declare-fun z_2_19_4 () Bool)
(declare-fun z_2_19_3 () Bool)
(declare-fun z_2_19_2 () Bool)
(declare-fun z_2_19_1 () Bool)
(declare-fun z_2_19_0 () Bool)
(declare-fun z_0_19_1 () Bool)
(declare-fun z_0_19_2 () Bool)
(declare-fun z_0_19_3 () Bool)
(declare-fun z_0_19_4 () Bool)
(declare-fun z_0_19_5 () Bool)
(declare-fun z_0_19_6 () Bool)
(declare-fun z_0_19_7 () Bool)
(declare-fun z_0_19_8 () Bool)
(declare-fun x_2_p () Bool)
(declare-fun x_2_-> () Bool)
(declare-fun x_2_U () Bool)
(declare-fun x_2_v () Bool)
(declare-fun x_2_& () Bool)
(declare-fun x_2_X () Bool)
(declare-fun x_2_! () Bool)
(declare-fun x_2_F () Bool)
(declare-fun x_2_G () Bool)
(assert
 (= z_0_0_0 true))
(assert
 (= z_0_1_0 true))
(assert
 (= z_0_2_0 true))
(assert
 (= z_0_3_0 true))
(assert
 (= z_0_4_0 true))
(assert
 (= z_0_5_0 true))
(assert
 (= z_0_6_0 true))
(assert
 (= z_0_7_0 true))
(assert
 (= z_0_8_0 true))
(assert
 (= z_0_9_0 true))
(assert
 (= z_0_10_0 false))
(assert
 (= z_0_11_0 false))
(assert
 (= z_0_12_0 false))
(assert
 (= z_0_13_0 false))
(assert
 (= z_0_14_0 false))
(assert
 (= z_0_15_0 false))
(assert
 (= z_0_16_0 false))
(assert
 (= z_0_17_0 false))
(assert
 (= z_0_18_0 false))
(assert
 (= z_0_19_0 false))
(assert
 (= z_0_0_0 (and z_2_0_0)))
(assert
 (= z_0_1_0 (and z_2_1_0)))
(assert
 (= z_0_2_0 (and z_2_2_0)))
(assert
 (= z_0_3_0 (and z_2_3_0)))
(assert
 (= z_0_4_0 (and z_2_4_0)))
(assert
 (= z_0_5_0 (and z_2_5_0)))
(assert
 (= z_0_6_0 (and z_2_6_0)))
(assert
 (= z_0_7_0 (and z_2_7_0)))
(assert
 (= z_0_8_0 (and z_2_8_0)))
(assert
 (= z_0_9_0 (and z_2_9_0)))
(assert
 (let (($x2353 (and z_2_10_0 z_2_10_1 z_2_10_2 z_2_10_3 z_2_10_4 z_2_10_5 z_2_10_6 z_2_10_7 z_2_10_8)))
 (= z_0_10_0 $x2353)))
(assert
 (let (($x2355 (and z_2_10_1 z_2_10_2 z_2_10_3 z_2_10_4 z_2_10_5 z_2_10_6 z_2_10_7 z_2_10_8)))
 (= z_0_10_1 $x2355)))
(assert
 (let (($x2357 (and z_2_10_2 z_2_10_3 z_2_10_4 z_2_10_5 z_2_10_6 z_2_10_7 z_2_10_8)))
 (= z_0_10_2 $x2357)))
(assert
 (= z_0_10_3 (and z_2_10_3 z_2_10_4 z_2_10_5 z_2_10_6 z_2_10_7 z_2_10_8)))
(assert
 (let (($x2361 (and z_2_10_4 z_2_10_5 z_2_10_6 z_2_10_7 z_2_10_8)))
 (= z_0_10_4 $x2361)))
(assert
 (let (($x2361 (and z_2_10_4 z_2_10_5 z_2_10_6 z_2_10_7 z_2_10_8)))
 (= z_0_10_5 $x2361)))
(assert
 (let (($x2361 (and z_2_10_4 z_2_10_5 z_2_10_6 z_2_10_7 z_2_10_8)))
 (= z_0_10_6 $x2361)))
(assert
 (let (($x2361 (and z_2_10_4 z_2_10_5 z_2_10_6 z_2_10_7 z_2_10_8)))
 (= z_0_10_7 $x2361)))
(assert
 (let (($x2361 (and z_2_10_4 z_2_10_5 z_2_10_6 z_2_10_7 z_2_10_8)))
 (= z_0_10_8 $x2361)))
(assert
 (let (($x2377 (and z_2_11_0 z_2_11_1 z_2_11_2 z_2_11_3 z_2_11_4 z_2_11_5 z_2_11_6 z_2_11_7 z_2_11_8 z_2_11_9)))
 (= z_0_11_0 $x2377)))
(assert
 (let (($x2379 (and z_2_11_1 z_2_11_2 z_2_11_3 z_2_11_4 z_2_11_5 z_2_11_6 z_2_11_7 z_2_11_8 z_2_11_9)))
 (= z_0_11_1 $x2379)))
(assert
 (let (($x2381 (and z_2_11_2 z_2_11_3 z_2_11_4 z_2_11_5 z_2_11_6 z_2_11_7 z_2_11_8 z_2_11_9)))
 (= z_0_11_2 $x2381)))
(assert
 (let (($x2383 (and z_2_11_3 z_2_11_4 z_2_11_5 z_2_11_6 z_2_11_7 z_2_11_8 z_2_11_9)))
 (= z_0_11_3 $x2383)))
(assert
 (= z_0_11_4 (and z_2_11_4 z_2_11_5 z_2_11_6 z_2_11_7 z_2_11_8 z_2_11_9)))
(assert
 (= z_0_11_5 (and z_2_11_5 z_2_11_6 z_2_11_7 z_2_11_8 z_2_11_9)))
(assert
 (let (($x2389 (and z_2_11_6 z_2_11_7 z_2_11_8 z_2_11_9)))
 (= z_0_11_6 $x2389)))
(assert
 (let (($x2389 (and z_2_11_6 z_2_11_7 z_2_11_8 z_2_11_9)))
 (= z_0_11_7 $x2389)))
(assert
 (let (($x2389 (and z_2_11_6 z_2_11_7 z_2_11_8 z_2_11_9)))
 (= z_0_11_8 $x2389)))
(assert
 (let (($x2389 (and z_2_11_6 z_2_11_7 z_2_11_8 z_2_11_9)))
 (= z_0_11_9 $x2389)))
(assert
 (let (($x2405 (and z_2_12_0 z_2_12_1 z_2_12_2 z_2_12_3 z_2_12_4 z_2_12_5 z_2_12_6 z_2_12_7 z_2_12_8 z_2_12_9 z_2_12_10)))
 (= z_0_12_0 $x2405)))
(assert
 (let (($x2407 (and z_2_12_1 z_2_12_2 z_2_12_3 z_2_12_4 z_2_12_5 z_2_12_6 z_2_12_7 z_2_12_8 z_2_12_9 z_2_12_10)))
 (= z_0_12_1 $x2407)))
(assert
 (let (($x2409 (and z_2_12_2 z_2_12_3 z_2_12_4 z_2_12_5 z_2_12_6 z_2_12_7 z_2_12_8 z_2_12_9 z_2_12_10)))
 (= z_0_12_2 $x2409)))
(assert
 (let (($x2411 (and z_2_12_3 z_2_12_4 z_2_12_5 z_2_12_6 z_2_12_7 z_2_12_8 z_2_12_9 z_2_12_10)))
 (= z_0_12_3 $x2411)))
(assert
 (let (($x2413 (and z_2_12_4 z_2_12_5 z_2_12_6 z_2_12_7 z_2_12_8 z_2_12_9 z_2_12_10)))
 (= z_0_12_4 $x2413)))
(assert
 (let (($x2415 (and z_2_12_5 z_2_12_6 z_2_12_7 z_2_12_8 z_2_12_9 z_2_12_10)))
 (= z_0_12_5 $x2415)))
(assert
 (let (($x2415 (and z_2_12_5 z_2_12_6 z_2_12_7 z_2_12_8 z_2_12_9 z_2_12_10)))
 (= z_0_12_6 $x2415)))
(assert
 (let (($x2415 (and z_2_12_5 z_2_12_6 z_2_12_7 z_2_12_8 z_2_12_9 z_2_12_10)))
 (= z_0_12_7 $x2415)))
(assert
 (let (($x2415 (and z_2_12_5 z_2_12_6 z_2_12_7 z_2_12_8 z_2_12_9 z_2_12_10)))
 (= z_0_12_8 $x2415)))
(assert
 (let (($x2415 (and z_2_12_5 z_2_12_6 z_2_12_7 z_2_12_8 z_2_12_9 z_2_12_10)))
 (= z_0_12_9 $x2415)))
(assert
 (let (($x2415 (and z_2_12_5 z_2_12_6 z_2_12_7 z_2_12_8 z_2_12_9 z_2_12_10)))
 (= z_0_12_10 $x2415)))
(assert
 (let (($x2431 (and z_2_13_0 z_2_13_1 z_2_13_2 z_2_13_3 z_2_13_4 z_2_13_5 z_2_13_6 z_2_13_7 z_2_13_8)))
 (= z_0_13_0 $x2431)))
(assert
 (let (($x2433 (and z_2_13_1 z_2_13_2 z_2_13_3 z_2_13_4 z_2_13_5 z_2_13_6 z_2_13_7 z_2_13_8)))
 (= z_0_13_1 $x2433)))
(assert
 (let (($x2435 (and z_2_13_2 z_2_13_3 z_2_13_4 z_2_13_5 z_2_13_6 z_2_13_7 z_2_13_8)))
 (= z_0_13_2 $x2435)))
(assert
 (= z_0_13_3 (and z_2_13_3 z_2_13_4 z_2_13_5 z_2_13_6 z_2_13_7 z_2_13_8)))
(assert
 (let (($x2439 (and z_2_13_4 z_2_13_5 z_2_13_6 z_2_13_7 z_2_13_8)))
 (= z_0_13_4 $x2439)))
(assert
 (let (($x2439 (and z_2_13_4 z_2_13_5 z_2_13_6 z_2_13_7 z_2_13_8)))
 (= z_0_13_5 $x2439)))
(assert
 (let (($x2439 (and z_2_13_4 z_2_13_5 z_2_13_6 z_2_13_7 z_2_13_8)))
 (= z_0_13_6 $x2439)))
(assert
 (let (($x2439 (and z_2_13_4 z_2_13_5 z_2_13_6 z_2_13_7 z_2_13_8)))
 (= z_0_13_7 $x2439)))
(assert
 (let (($x2439 (and z_2_13_4 z_2_13_5 z_2_13_6 z_2_13_7 z_2_13_8)))
 (= z_0_13_8 $x2439)))
(assert
 (= z_0_14_0 (and z_2_14_0 z_2_14_1 z_2_14_2 z_2_14_3 z_2_14_4 z_2_14_5)))
(assert
 (let (($x2453 (and z_2_14_1 z_2_14_2 z_2_14_3 z_2_14_4 z_2_14_5)))
 (= z_0_14_1 $x2453)))
(assert
 (let (($x2453 (and z_2_14_1 z_2_14_2 z_2_14_3 z_2_14_4 z_2_14_5)))
 (= z_0_14_2 $x2453)))
(assert
 (let (($x2453 (and z_2_14_1 z_2_14_2 z_2_14_3 z_2_14_4 z_2_14_5)))
 (= z_0_14_3 $x2453)))
(assert
 (let (($x2453 (and z_2_14_1 z_2_14_2 z_2_14_3 z_2_14_4 z_2_14_5)))
 (= z_0_14_4 $x2453)))
(assert
 (let (($x2453 (and z_2_14_1 z_2_14_2 z_2_14_3 z_2_14_4 z_2_14_5)))
 (= z_0_14_5 $x2453)))
(assert
 (let (($x2471 (and z_2_15_0 z_2_15_1 z_2_15_2 z_2_15_3 z_2_15_4 z_2_15_5 z_2_15_6 z_2_15_7 z_2_15_8 z_2_15_9 z_2_15_10 z_2_15_11)))
 (= z_0_15_0 $x2471)))
(assert
 (let (($x2473 (and z_2_15_1 z_2_15_2 z_2_15_3 z_2_15_4 z_2_15_5 z_2_15_6 z_2_15_7 z_2_15_8 z_2_15_9 z_2_15_10 z_2_15_11)))
 (= z_0_15_1 $x2473)))
(assert
 (let (($x2475 (and z_2_15_2 z_2_15_3 z_2_15_4 z_2_15_5 z_2_15_6 z_2_15_7 z_2_15_8 z_2_15_9 z_2_15_10 z_2_15_11)))
 (= z_0_15_2 $x2475)))
(assert
 (let (($x2477 (and z_2_15_3 z_2_15_4 z_2_15_5 z_2_15_6 z_2_15_7 z_2_15_8 z_2_15_9 z_2_15_10 z_2_15_11)))
 (= z_0_15_3 $x2477)))
(assert
 (let (($x2479 (and z_2_15_4 z_2_15_5 z_2_15_6 z_2_15_7 z_2_15_8 z_2_15_9 z_2_15_10 z_2_15_11)))
 (= z_0_15_4 $x2479)))
(assert
 (let (($x2481 (and z_2_15_5 z_2_15_6 z_2_15_7 z_2_15_8 z_2_15_9 z_2_15_10 z_2_15_11)))
 (= z_0_15_5 $x2481)))
(assert
 (let (($x2483 (and z_2_15_6 z_2_15_7 z_2_15_8 z_2_15_9 z_2_15_10 z_2_15_11)))
 (= z_0_15_6 $x2483)))
(assert
 (let (($x2483 (and z_2_15_6 z_2_15_7 z_2_15_8 z_2_15_9 z_2_15_10 z_2_15_11)))
 (= z_0_15_7 $x2483)))
(assert
 (let (($x2483 (and z_2_15_6 z_2_15_7 z_2_15_8 z_2_15_9 z_2_15_10 z_2_15_11)))
 (= z_0_15_8 $x2483)))
(assert
 (let (($x2483 (and z_2_15_6 z_2_15_7 z_2_15_8 z_2_15_9 z_2_15_10 z_2_15_11)))
 (= z_0_15_9 $x2483)))
(assert
 (let (($x2483 (and z_2_15_6 z_2_15_7 z_2_15_8 z_2_15_9 z_2_15_10 z_2_15_11)))
 (= z_0_15_10 $x2483)))
(assert
 (let (($x2483 (and z_2_15_6 z_2_15_7 z_2_15_8 z_2_15_9 z_2_15_10 z_2_15_11)))
 (= z_0_15_11 $x2483)))
(assert
 (let (($x2497 (and z_2_16_0 z_2_16_1 z_2_16_2 z_2_16_3 z_2_16_4 z_2_16_5 z_2_16_6)))
 (= z_0_16_0 $x2497)))
(assert
 (= z_0_16_1 (and z_2_16_1 z_2_16_2 z_2_16_3 z_2_16_4 z_2_16_5 z_2_16_6)))
(assert
 (= z_0_16_2 (and z_2_16_2 z_2_16_3 z_2_16_4 z_2_16_5 z_2_16_6)))
(assert
 (= z_0_16_3 (and z_2_16_3 z_2_16_4 z_2_16_5 z_2_16_6)))
(assert
 (= z_0_16_4 (and z_2_16_4 z_2_16_5 z_2_16_6)))
(assert
 (let (($x2507 (and z_2_16_5 z_2_16_6)))
 (= z_0_16_5 $x2507)))
(assert
 (let (($x2507 (and z_2_16_5 z_2_16_6)))
 (= z_0_16_6 $x2507)))
(assert
 (let (($x2522 (and z_2_17_0 z_2_17_1 z_2_17_2 z_2_17_3 z_2_17_4 z_2_17_5 z_2_17_6 z_2_17_7 z_2_17_8 z_2_17_9 z_2_17_10 z_2_17_11)))
 (= z_0_17_0 $x2522)))
(assert
 (let (($x2524 (and z_2_17_1 z_2_17_2 z_2_17_3 z_2_17_4 z_2_17_5 z_2_17_6 z_2_17_7 z_2_17_8 z_2_17_9 z_2_17_10 z_2_17_11)))
 (= z_0_17_1 $x2524)))
(assert
 (let (($x2526 (and z_2_17_2 z_2_17_3 z_2_17_4 z_2_17_5 z_2_17_6 z_2_17_7 z_2_17_8 z_2_17_9 z_2_17_10 z_2_17_11)))
 (= z_0_17_2 $x2526)))
(assert
 (let (($x2528 (and z_2_17_3 z_2_17_4 z_2_17_5 z_2_17_6 z_2_17_7 z_2_17_8 z_2_17_9 z_2_17_10 z_2_17_11)))
 (= z_0_17_3 $x2528)))
(assert
 (let (($x2530 (and z_2_17_4 z_2_17_5 z_2_17_6 z_2_17_7 z_2_17_8 z_2_17_9 z_2_17_10 z_2_17_11)))
 (= z_0_17_4 $x2530)))
(assert
 (let (($x2532 (and z_2_17_5 z_2_17_6 z_2_17_7 z_2_17_8 z_2_17_9 z_2_17_10 z_2_17_11)))
 (= z_0_17_5 $x2532)))
(assert
 (let (($x2534 (and z_2_17_6 z_2_17_7 z_2_17_8 z_2_17_9 z_2_17_10 z_2_17_11)))
 (= z_0_17_6 $x2534)))
(assert
 (let (($x2534 (and z_2_17_6 z_2_17_7 z_2_17_8 z_2_17_9 z_2_17_10 z_2_17_11)))
 (= z_0_17_7 $x2534)))
(assert
 (let (($x2534 (and z_2_17_6 z_2_17_7 z_2_17_8 z_2_17_9 z_2_17_10 z_2_17_11)))
 (= z_0_17_8 $x2534)))
(assert
 (let (($x2534 (and z_2_17_6 z_2_17_7 z_2_17_8 z_2_17_9 z_2_17_10 z_2_17_11)))
 (= z_0_17_9 $x2534)))
(assert
 (let (($x2534 (and z_2_17_6 z_2_17_7 z_2_17_8 z_2_17_9 z_2_17_10 z_2_17_11)))
 (= z_0_17_10 $x2534)))
(assert
 (let (($x2534 (and z_2_17_6 z_2_17_7 z_2_17_8 z_2_17_9 z_2_17_10 z_2_17_11)))
 (= z_0_17_11 $x2534)))
(assert
 (let (($x2549 (and z_2_18_0 z_2_18_1 z_2_18_2 z_2_18_3 z_2_18_4 z_2_18_5 z_2_18_6 z_2_18_7)))
 (= z_0_18_0 $x2549)))
(assert
 (let (($x2551 (and z_2_18_1 z_2_18_2 z_2_18_3 z_2_18_4 z_2_18_5 z_2_18_6 z_2_18_7)))
 (= z_0_18_1 $x2551)))
(assert
 (= z_0_18_2 (and z_2_18_2 z_2_18_3 z_2_18_4 z_2_18_5 z_2_18_6 z_2_18_7)))
(assert
 (= z_0_18_3 (and z_2_18_3 z_2_18_4 z_2_18_5 z_2_18_6 z_2_18_7)))
(assert
 (let (($x2557 (and z_2_18_4 z_2_18_5 z_2_18_6 z_2_18_7)))
 (= z_0_18_4 $x2557)))
(assert
 (let (($x2557 (and z_2_18_4 z_2_18_5 z_2_18_6 z_2_18_7)))
 (= z_0_18_5 $x2557)))
(assert
 (let (($x2557 (and z_2_18_4 z_2_18_5 z_2_18_6 z_2_18_7)))
 (= z_0_18_6 $x2557)))
(assert
 (let (($x2557 (and z_2_18_4 z_2_18_5 z_2_18_6 z_2_18_7)))
 (= z_0_18_7 $x2557)))
(assert
 (let (($x2571 (and z_2_19_0 z_2_19_1 z_2_19_2 z_2_19_3 z_2_19_4 z_2_19_5 z_2_19_6 z_2_19_7 z_2_19_8)))
 (= z_0_19_0 $x2571)))
(assert
 (let (($x2573 (and z_2_19_1 z_2_19_2 z_2_19_3 z_2_19_4 z_2_19_5 z_2_19_6 z_2_19_7 z_2_19_8)))
 (= z_0_19_1 $x2573)))
(assert
 (let (($x2575 (and z_2_19_2 z_2_19_3 z_2_19_4 z_2_19_5 z_2_19_6 z_2_19_7 z_2_19_8)))
 (= z_0_19_2 $x2575)))
(assert
 (= z_0_19_3 (and z_2_19_3 z_2_19_4 z_2_19_5 z_2_19_6 z_2_19_7 z_2_19_8)))
(assert
 (let (($x2579 (and z_2_19_4 z_2_19_5 z_2_19_6 z_2_19_7 z_2_19_8)))
 (= z_0_19_4 $x2579)))
(assert
 (let (($x2579 (and z_2_19_4 z_2_19_5 z_2_19_6 z_2_19_7 z_2_19_8)))
 (= z_0_19_5 $x2579)))
(assert
 (let (($x2579 (and z_2_19_4 z_2_19_5 z_2_19_6 z_2_19_7 z_2_19_8)))
 (= z_0_19_6 $x2579)))
(assert
 (let (($x2579 (and z_2_19_4 z_2_19_5 z_2_19_6 z_2_19_7 z_2_19_8)))
 (= z_0_19_7 $x2579)))
(assert
 (let (($x2579 (and z_2_19_4 z_2_19_5 z_2_19_6 z_2_19_7 z_2_19_8)))
 (= z_0_19_8 $x2579)))
(assert
 (and true true))
(assert
 (=> x_2_p z_2_0_0))
(assert
 (=> x_2_p z_2_1_0))
(assert
 (=> x_2_p z_2_2_0))
(assert
 (=> x_2_p z_2_3_0))
(assert
 (=> x_2_p z_2_4_0))
(assert
 (=> x_2_p z_2_5_0))
(assert
 (=> x_2_p z_2_6_0))
(assert
 (=> x_2_p z_2_7_0))
(assert
 (=> x_2_p z_2_8_0))
(assert
 (=> x_2_p z_2_9_0))
(assert
 (let (($x2626 (not z_2_10_0)))
 (=> x_2_p $x2626)))
(assert
 (=> x_2_p z_2_10_1))
(assert
 (=> x_2_p z_2_10_2))
(assert
 (=> x_2_p z_2_10_3))
(assert
 (=> x_2_p z_2_10_4))
(assert
 (let (($x2637 (not z_2_10_5)))
 (=> x_2_p $x2637)))
(assert
 (=> x_2_p z_2_10_6))
(assert
 (=> x_2_p z_2_10_7))
(assert
 (let (($x2644 (not z_2_10_8)))
 (=> x_2_p $x2644)))
(assert
 (=> x_2_p z_2_11_0))
(assert
 (=> x_2_p z_2_11_1))
(assert
 (let (($x2651 (not z_2_11_2)))
 (=> x_2_p $x2651)))
(assert
 (let (($x2654 (not z_2_11_3)))
 (=> x_2_p $x2654)))
(assert
 (let (($x2657 (not z_2_11_4)))
 (=> x_2_p $x2657)))
(assert
 (let (($x2660 (not z_2_11_5)))
 (=> x_2_p $x2660)))
(assert
 (=> x_2_p z_2_11_6))
(assert
 (let (($x2665 (not z_2_11_7)))
 (=> x_2_p $x2665)))
(assert
 (let (($x2668 (not z_2_11_8)))
 (=> x_2_p $x2668)))
(assert
 (=> x_2_p z_2_11_9))
(assert
 (=> x_2_p z_2_12_0))
(assert
 (=> x_2_p z_2_12_1))
(assert
 (let (($x2677 (not z_2_12_2)))
 (=> x_2_p $x2677)))
(assert
 (=> x_2_p z_2_12_3))
(assert
 (=> x_2_p z_2_12_4))
(assert
 (=> x_2_p z_2_12_5))
(assert
 (=> x_2_p z_2_12_6))
(assert
 (=> x_2_p z_2_12_7))
(assert
 (=> x_2_p z_2_12_8))
(assert
 (let (($x2692 (not z_2_12_9)))
 (=> x_2_p $x2692)))
(assert
 (let (($x2695 (not z_2_12_10)))
 (=> x_2_p $x2695)))
(assert
 (let (($x2698 (not z_2_13_0)))
 (=> x_2_p $x2698)))
(assert
 (let (($x2701 (not z_2_13_1)))
 (=> x_2_p $x2701)))
(assert
 (=> x_2_p z_2_13_2))
(assert
 (=> x_2_p z_2_13_3))
(assert
 (=> x_2_p z_2_13_4))
(assert
 (let (($x2710 (not z_2_13_5)))
 (=> x_2_p $x2710)))
(assert
 (=> x_2_p z_2_13_6))
(assert
 (=> x_2_p z_2_13_7))
(assert
 (let (($x2717 (not z_2_13_8)))
 (=> x_2_p $x2717)))
(assert
 (let (($x2720 (not z_2_14_0)))
 (=> x_2_p $x2720)))
(assert
 (let (($x2723 (not z_2_14_1)))
 (=> x_2_p $x2723)))
(assert
 (let (($x2726 (not z_2_14_2)))
 (=> x_2_p $x2726)))
(assert
 (=> x_2_p z_2_14_3))
(assert
 (=> x_2_p z_2_14_4))
(assert
 (=> x_2_p z_2_14_5))
(assert
 (=> x_2_p z_2_15_0))
(assert
 (let (($x2737 (not z_2_15_1)))
 (=> x_2_p $x2737)))
(assert
 (=> x_2_p z_2_15_2))
(assert
 (let (($x2742 (not z_2_15_3)))
 (=> x_2_p $x2742)))
(assert
 (=> x_2_p z_2_15_4))
(assert
 (let (($x2747 (not z_2_15_5)))
 (=> x_2_p $x2747)))
(assert
 (=> x_2_p z_2_15_6))
(assert
 (let (($x2752 (not z_2_15_7)))
 (=> x_2_p $x2752)))
(assert
 (let (($x2755 (not z_2_15_8)))
 (=> x_2_p $x2755)))
(assert
 (let (($x2758 (not z_2_15_9)))
 (=> x_2_p $x2758)))
(assert
 (let (($x2761 (not z_2_15_10)))
 (=> x_2_p $x2761)))
(assert
 (=> x_2_p z_2_15_11))
(assert
 (let (($x2766 (not z_2_16_0)))
 (=> x_2_p $x2766)))
(assert
 (let (($x2769 (not z_2_16_1)))
 (=> x_2_p $x2769)))
(assert
 (let (($x2772 (not z_2_16_2)))
 (=> x_2_p $x2772)))
(assert
 (=> x_2_p z_2_16_3))
(assert
 (=> x_2_p z_2_16_4))
(assert
 (=> x_2_p z_2_16_5))
(assert
 (let (($x2781 (not z_2_16_6)))
 (=> x_2_p $x2781)))
(assert
 (let (($x2784 (not z_2_17_0)))
 (=> x_2_p $x2784)))
(assert
 (let (($x2787 (not z_2_17_1)))
 (=> x_2_p $x2787)))
(assert
 (=> x_2_p z_2_17_2))
(assert
 (let (($x2792 (not z_2_17_3)))
 (=> x_2_p $x2792)))
(assert
 (let (($x2795 (not z_2_17_4)))
 (=> x_2_p $x2795)))
(assert
 (let (($x2798 (not z_2_17_5)))
 (=> x_2_p $x2798)))
(assert
 (let (($x2801 (not z_2_17_6)))
 (=> x_2_p $x2801)))
(assert
 (let (($x2804 (not z_2_17_7)))
 (=> x_2_p $x2804)))
(assert
 (=> x_2_p z_2_17_8))
(assert
 (let (($x2809 (not z_2_17_9)))
 (=> x_2_p $x2809)))
(assert
 (=> x_2_p z_2_17_10))
(assert
 (=> x_2_p z_2_17_11))
(assert
 (=> x_2_p z_2_18_0))
(assert
 (=> x_2_p z_2_18_1))
(assert
 (=> x_2_p z_2_18_2))
(assert
 (let (($x2822 (not z_2_18_3)))
 (=> x_2_p $x2822)))
(assert
 (let (($x2825 (not z_2_18_4)))
 (=> x_2_p $x2825)))
(assert
 (let (($x2828 (not z_2_18_5)))
 (=> x_2_p $x2828)))
(assert
 (=> x_2_p z_2_18_6))
(assert
 (=> x_2_p z_2_18_7))
(assert
 (let (($x2835 (not z_2_19_0)))
 (=> x_2_p $x2835)))
(assert
 (let (($x2838 (not z_2_19_1)))
 (=> x_2_p $x2838)))
(assert
 (=> x_2_p z_2_19_2))
(assert
 (=> x_2_p z_2_19_3))
(assert
 (=> x_2_p z_2_19_4))
(assert
 (let (($x2847 (not z_2_19_5)))
 (=> x_2_p $x2847)))
(assert
 (=> x_2_p z_2_19_6))
(assert
 (=> x_2_p z_2_19_7))
(assert
 (let (($x2854 (not z_2_19_8)))
 (=> x_2_p $x2854)))
(assert
 (or x_2_p))
(assert
 (let (($x2603 (not x_2_->)))
 (let (($x2601 (not x_2_U)))
 (let (($x2599 (not x_2_v)))
 (let (($x2597 (not x_2_&)))
 (let (($x2595 (not x_2_X)))
 (let (($x2593 (not x_2_!)))
 (let (($x2591 (not x_2_F)))
 (let (($x2589 (not x_2_G)))
 (and $x2589 $x2591 $x2593 $x2595 $x2597 $x2599 $x2601 $x2603))))))))))
(check-sat)

